417,42
653,397
663,463
956,681
1162,651
1137,554
716,454
494,501
254,545
452,721
681,736
699,524
654,491
552,7
707,419
620,791
616,820
626,577
681,496
802,318
1095,341
723,140
996,177
999,88
871,32
823,360
